Academic license - for non-commercial use only
Gurobi Optimizer version 9.0.3 build v9.0.3rc0 (mac64)
Optimize a model with 623674 rows, 601200 columns and 3502950 nonzeros
Model fingerprint: 0x6fd11704
Variable types: 0 continuous, 601200 integer (601200 binary)
Coefficient statistics:
  Matrix range     [1e+00, 1e+00]
  Objective range  [1e+01, 1e+05]
  Bounds range     [1e+00, 1e+00]
  RHS range        [1e+00, 1e+03]
Presolve removed 50 rows and 50 columns (presolve time = 5s) ...
Presolve removed 10050 rows and 50 columns (presolve time = 10s) ...
Presolve added 0 rows and 9950 columns
Presolve removed 50 rows and 0 columns
Presolve time: 12.73s
Presolved: 623624 rows, 611150 columns, 2532850 nonzeros
Variable types: 0 continuous, 611150 integer (611150 binary)
Found heuristic solution: objective 1008143.0000

Concurrent LP optimizer: dual simplex and barrier
Showing barrier log only...

Root barrier log...

Ordering time: 0.18s

Barrier statistics:
 Dense cols : 600
 AA' NZ     : 1.949e+06
 Factor NZ  : 1.286e+07 (roughly 600 MBytes of memory)
 Factor Ops : 5.972e+09 (less than 1 second per iteration)
 Threads    : 3

                  Objective                Residual
Iter       Primal          Dual         Primal    Dual     Compl     Time
   0   8.32528791e+08 -1.28097862e+09  6.49e+02 2.90e+01  3.11e+04    25s
   1   2.69747920e+06 -1.33703761e+09  3.30e+00 4.65e+03  8.58e+02    25s
   2   1.40254677e+06 -1.74581143e+08  7.02e-01 4.45e+02  1.07e+02    26s
   3   1.32577818e+06 -8.84359615e+06  5.50e-01 4.27e+01  6.60e+00    27s
   4   1.01136671e+06 -8.76516492e+05  4.29e-02 7.91e+00  1.04e+00    28s
   5   9.55055826e+05  2.59528656e+05  2.98e-02 2.05e+00  3.76e-01    29s
   6   9.21486190e+05  5.08760982e+05  2.38e-02 9.69e-01  2.21e-01    30s
   7   9.04527331e+05  5.78058175e+05  2.16e-02 6.63e-01  1.74e-01    31s
   8   8.90014361e+05  6.15557783e+05  1.97e-02 4.92e-01  1.46e-01    32s
   9   8.68596702e+05  6.50605283e+05  1.71e-02 3.29e-01  1.16e-01    33s
  10   8.54915258e+05  6.78714711e+05  1.57e-02 2.04e-01  9.30e-02    34s
  11   8.41486513e+05  6.89034985e+05  1.42e-02 1.57e-01  8.03e-02    35s
  12   8.28436217e+05  6.99769463e+05  1.28e-02 1.24e-01  6.76e-02    37s
  13   8.17591592e+05  7.05659476e+05  1.17e-02 1.23e-01  5.87e-02    38s
  14   8.07612334e+05  7.10515541e+05  1.05e-02 8.60e-02  5.08e-02    40s
  15   7.95320153e+05  7.13666167e+05  9.14e-03 7.78e-02  4.27e-02    41s
  16   7.86623928e+05  7.16243710e+05  8.01e-03 5.14e-02  3.68e-02    42s
  17   7.77772019e+05  7.18067457e+05  7.08e-03 3.72e-02  3.11e-02    43s
  18   7.66163588e+05  7.19538173e+05  5.81e-03 2.58e-02  2.43e-02    44s
  19   7.57724529e+05  7.20023578e+05  4.76e-03 2.24e-02  1.96e-02    45s
  20   7.53008763e+05  7.20703740e+05  4.15e-03 1.83e-02  1.68e-02    46s
  21   7.47637632e+05  7.21385256e+05  3.47e-03 1.44e-02  1.36e-02    47s
  22   7.43154665e+05  7.21936862e+05  2.89e-03 1.19e-02  1.10e-02    48s
  23   7.40555699e+05  7.22283180e+05  2.52e-03 1.00e-02  9.46e-03    49s
  24   7.38126379e+05  7.22677180e+05  2.17e-03 1.06e-02  7.99e-03    50s
  25   7.36466280e+05  7.22957137e+05  1.92e-03 9.16e-03  6.98e-03    51s
  26   7.34874855e+05  7.23183603e+05  1.69e-03 7.62e-03  6.04e-03    52s
  27   7.33347879e+05  7.23407972e+05  1.46e-03 6.48e-03  5.13e-03    52s
  28   7.31934970e+05  7.23583288e+05  1.23e-03 5.52e-03  4.31e-03    53s
  29   7.30839346e+05  7.23724491e+05  1.07e-03 4.73e-03  3.66e-03    54s
  30   7.29812302e+05  7.23799840e+05  9.16e-04 4.24e-03  3.09e-03    55s
  31   7.28810718e+05  7.23906721e+05  7.66e-04 3.51e-03  2.52e-03    56s
  32   7.28227961e+05  7.23995458e+05  6.78e-04 2.86e-03  2.17e-03    57s
  33   7.27492392e+05  7.24037810e+05  5.55e-04 2.56e-03  1.77e-03    57s
  34   7.27114099e+05  7.24097587e+05  4.92e-04 2.09e-03  1.55e-03    58s
  35   7.26679516e+05  7.24130634e+05  4.19e-04 1.88e-03  1.31e-03    59s
  36   7.26463791e+05  7.24224266e+05  3.83e-04 1.29e-03  1.14e-03    60s
  37   7.26206569e+05  7.24271181e+05  3.40e-04 1.04e-03  9.87e-04    61s
  38   7.26010554e+05  7.24306589e+05  3.04e-04 8.98e-04  8.68e-04    62s
  39   7.25815639e+05  7.24310932e+05  2.69e-04 8.68e-04  7.66e-04    62s
  40   7.25673007e+05  7.24346220e+05  2.45e-04 7.02e-04  6.74e-04    63s
  41   7.25510270e+05  7.24357201e+05  2.13e-04 6.34e-04  5.86e-04    64s
  42   7.25413778e+05  7.24372246e+05  1.96e-04 5.23e-04  5.28e-04    65s
  43   7.25292908e+05  7.24383199e+05  1.74e-04 4.45e-04  4.61e-04    66s
  44   7.25171353e+05  7.24389499e+05  1.50e-04 4.05e-04  3.96e-04    67s
  45   7.25119229e+05  7.24395082e+05  1.40e-04 3.67e-04  3.67e-04    68s
  46   7.24999372e+05  7.24400618e+05  1.16e-04 3.29e-04  3.03e-04    68s
  47   7.24939641e+05  7.24406643e+05  1.03e-04 2.91e-04  2.70e-04    69s
  48   7.24847746e+05  7.24411498e+05  8.52e-05 2.60e-04  2.21e-04    70s
  49   7.24809730e+05  7.24417082e+05  7.72e-05 2.30e-04  1.99e-04    71s
  50   7.24801117e+05  7.24418238e+05  7.56e-05 2.24e-04  1.94e-04    72s
  51   7.24756147e+05  7.24421561e+05  6.63e-05 2.03e-04  1.69e-04    73s
  52   7.24727221e+05  7.24430977e+05  6.04e-05 1.52e-04  1.49e-04    73s
  53   7.24706144e+05  7.24435894e+05  5.65e-05 1.25e-04  1.36e-04    74s
  54   7.24696177e+05  7.24438193e+05  5.45e-05 1.14e-04  1.30e-04    75s
  55   7.24654096e+05  7.24441173e+05  4.57e-05 9.43e-05  1.07e-04    76s
  56   7.24623588e+05  7.24443188e+05  3.87e-05 8.14e-05  9.06e-05    77s
  57   7.24599897e+05  7.24445339e+05  3.36e-05 6.70e-05  7.75e-05    78s
  58   7.24581597e+05  7.24447163e+05  2.94e-05 5.67e-05  6.74e-05    78s
  59   7.24566132e+05  7.24449456e+05  2.59e-05 4.55e-05  5.84e-05    79s
  60   7.24552831e+05  7.24450514e+05  2.30e-05 3.95e-05  5.12e-05    80s
  61   7.24532056e+05  7.24451701e+05  1.84e-05 3.31e-05  4.01e-05    81s
  62   7.24523563e+05  7.24452866e+05  1.65e-05 2.67e-05  3.52e-05    82s
  63   7.24517468e+05  7.24454126e+05  1.49e-05 2.04e-05  3.16e-05    83s
  64   7.24515318e+05  7.24454632e+05  1.44e-05 1.84e-05  3.02e-05    84s
  65   7.24498750e+05  7.24455916e+05  1.06e-05 1.19e-05  2.12e-05    85s
  66   7.24488477e+05  7.24456702e+05  7.83e-06 8.04e-06  1.58e-05    85s
  67   7.24485266e+05  7.24457551e+05  7.11e-06 4.87e-06  1.37e-05    86s
  68   7.24477052e+05  7.24457756e+05  4.97e-06 4.01e-06  9.53e-06    87s
  69   7.24474499e+05  7.24457976e+05  4.26e-06 3.05e-06  8.16e-06    88s
  70   7.24471835e+05  7.24458156e+05  3.53e-06 2.25e-06  6.75e-06    89s
  71   7.24469563e+05  7.24458428e+05  2.93e-06 1.49e-06  5.49e-06    90s
  72   7.24467703e+05  7.24458456e+05  2.41e-06 1.29e-06  4.56e-06    91s
  73   7.24464602e+05  7.24458600e+05  1.62e-06 8.21e-07  2.95e-06    91s
  74   7.24463021e+05  7.24458731e+05  1.17e-06 4.44e-07  2.11e-06    92s
  75   7.24461670e+05  7.24458836e+05  7.79e-07 1.89e-07  1.39e-06    93s
  76   7.24460040e+05  7.24458859e+05  3.06e-07 9.42e-08  5.82e-07    94s
  77   7.24459692e+05  7.24458916e+05  2.06e-07 4.67e-08  3.82e-07    95s
  78   7.24459310e+05  7.24458931e+05  9.76e-08 3.87e-08  1.87e-07    95s
  79   7.24459016e+05  7.24458944e+05  1.60e-08 4.66e-08  3.60e-08    96s
  80   7.24459016e+05  7.24458944e+05  1.59e-08 4.57e-08  3.58e-08    96s
  81   7.24459009e+05  7.24458946e+05  1.41e-08 4.40e-08  3.18e-08    97s
  82   7.24459008e+05  7.24458946e+05  1.38e-08 1.40e-08  3.10e-08    98s

Barrier solved model in 82 iterations and 97.87 seconds
Optimal objective 7.24459008e+05


Root crossover log...

  212196 DPushes remaining with DInf 0.0000000e+00                98s
    5207 DPushes remaining with DInf 0.0000000e+00               100s
    3170 DPushes remaining with DInf 0.0000000e+00               105s
     732 DPushes remaining with DInf 0.0000000e+00               110s
       0 DPushes remaining with DInf 0.0000000e+00               112s

    4628 PPushes remaining with PInf 1.8155232e-05               112s
       0 PPushes remaining with PInf 5.4257742e-05               113s

  Push phase complete: Pinf 5.4257742e-05, Dinf 4.0258528e+00    113s


Root simplex log...

Iteration    Objective       Primal Inf.    Dual Inf.      Time
   40682    7.2445895e+05   0.000000e+00   4.025853e+00    113s
   40693    7.2445895e+05   0.000000e+00   0.000000e+00    114s

Solved with barrier

Root relaxation: objective 7.244590e+05, 40693 iterations, 92.99 seconds
Total elapsed time = 119.26s
Total elapsed time = 120.45s

    Nodes    |    Current Node    |     Objective Bounds      |     Work
 Expl Unexpl |  Obj  Depth IntInf | Incumbent    BestBd   Gap | It/Node Time

     0     0 724458.954    0 57626 1008143.00 724458.954  28.1%     -  122s
H    0     0                    809649.00000 724458.954  10.5%     -  232s
     0     0 724458.954    0 57626 809649.000 724458.954  10.5%     -  300s

Explored 1 nodes (49637 simplex iterations) in 300.15 seconds
Thread count was 8 (of 8 available processors)

Solution count 2: 809649 1.00814e+06 

Time limit reached
Best objective 8.096490000000e+05, best bound 7.244590000000e+05, gap 10.5218%

User-callback calls 21707, time in user-callback 0.24 sec
Solution written to /Users/mdeboute/Desktop/Etudes/Master/M2/S9/GOPP/Projet/multi-period-flp/solution/instSingle_I50_J1000_T12_0_result.txt
